p cnf 78 429
c max 11 12 13 14 19 20 21 22 27 28 29 30 35 36 37 38 43 44 45 46 51 52 53 54 59 60 61 62 67 68 69 70 75 76 77 78 0
c ind 1 2 3 4 5 6 7 8 9 10 15 16 17 18 23 24 25 26 31 32 33 34 39 40 41 42 47 48 49 50 55 56 57 58 63 64 65 66 71 72 73 74 0
c p weight 4 0.9238795325112867384831361050601117312908172607421875 0
c p weight -4 1 0
c p weight 5 -0.382683432365089781779232680491986684501171112060546875 0
c p weight -5 1 0
c p weight 6 -1 0
c p weight -6 1 0
c p weight 9 -1 0
c p weight -9 1 0
c p weight 10 0.70710678118654752440084436210485 0
c p weight -10 1 0
c p weight 17 -1 0
c p weight -17 1 0
c p weight 18 0.70710678118654752440084436210485 0
c p weight -18 1 0
c p weight 25 -1 0
c p weight -25 1 0
c p weight 26 0.70710678118654752440084436210485 0
c p weight -26 1 0
c p weight 33 -1 0
c p weight -33 1 0
c p weight 34 0.70710678118654752440084436210485 0
c p weight -34 1 0
c p weight 41 -1 0
c p weight -41 1 0
c p weight 42 0.70710678118654752440084436210485 0
c p weight -42 1 0
c p weight 49 -1 0
c p weight -49 1 0
c p weight 50 0.70710678118654752440084436210485 0
c p weight -50 1 0
c p weight 57 -1 0
c p weight -57 1 0
c p weight 58 0.70710678118654752440084436210485 0
c p weight -58 1 0
c p weight 65 -1 0
c p weight -65 1 0
c p weight 66 0.70710678118654752440084436210485 0
c p weight -66 1 0
c p weight 73 -1 0
c p weight -73 1 0
c p weight 74 0.70710678118654752440084436210485 0
c p weight -74 1 0
3 1 -2 0
-3 1 2 0
-4 1 0
3 -4 -2 0
-3 -4 2 0
3 4 -1 2 0
-3 4 -1 -2 0
-5 1 0
3 -5 2 0
-3 -5 -2 0
3 5 -1 -2 0
-3 5 -1 2 0
-6 1 0
-6 2 0
-6 -3 0
6 3 -1 -2 0
-9 -11 0
7 -11 -1 0
-7 -11 1 0
8 -11 -3 0
-8 -11 3 0
-10 -11 0
-9 -12 1 0
-9 -12 3 0
9 -12 -1 -3 0
7 -12 -3 0
-7 -12 3 0
8 -12 -1 0
-8 -12 1 0
-10 -12 0
-9 8 -13 0
-9 -13 1 0
-9 -13 -3 0
9 -8 -13 -1 3 0
-9 -14 1 0
-9 -14 3 0
-9 -8 -14 0
9 8 -14 -1 -3 0
7 -13 -1 0
7 -14 -1 0
-7 -13 1 0
-7 -14 1 0
8 -13 1 -3 0
8 -14 1 -3 0
-8 -13 1 3 0
-8 -14 1 3 0
10 -13 -1 0
10 -14 -1 0
-10 -13 1 0
-10 -14 1 0
11 12 13 14 0
-11 -12 0
-11 -13 0
-11 -14 0
-12 -13 0
-12 -14 0
-13 -14 0
-17 -19 0
15 -19 -7 0
-15 -19 7 0
16 -19 -8 0
-16 -19 8 0
-18 -19 0
-17 -20 7 0
-17 -20 8 0
17 -20 -7 -8 0
15 -20 -8 0
-15 -20 8 0
16 -20 -7 0
-16 -20 7 0
-18 -20 0
-17 16 -21 0
-17 -21 7 0
-17 -21 -8 0
17 -16 -21 -7 8 0
-17 -22 7 0
-17 -22 8 0
-17 -16 -22 0
17 16 -22 -7 -8 0
15 -21 -7 0
15 -22 -7 0
-15 -21 7 0
-15 -22 7 0
16 -21 7 -8 0
16 -22 7 -8 0
-16 -21 7 8 0
-16 -22 7 8 0
18 -21 -7 0
18 -22 -7 0
-18 -21 7 0
-18 -22 7 0
19 20 21 22 0
-19 -20 0
-19 -21 0
-19 -22 0
-20 -21 0
-20 -22 0
-21 -22 0
-20 -12 0
-22 -13 0
-21 -14 0
-11 19 0
-25 -27 0
23 -27 -15 0
-23 -27 15 0
24 -27 -16 0
-24 -27 16 0
-26 -27 0
-25 -28 15 0
-25 -28 16 0
25 -28 -15 -16 0
23 -28 -16 0
-23 -28 16 0
24 -28 -15 0
-24 -28 15 0
-26 -28 0
-25 24 -29 0
-25 -29 15 0
-25 -29 -16 0
25 -24 -29 -15 16 0
-25 -30 15 0
-25 -30 16 0
-25 -24 -30 0
25 24 -30 -15 -16 0
23 -29 -15 0
23 -30 -15 0
-23 -29 15 0
-23 -30 15 0
24 -29 15 -16 0
24 -30 15 -16 0
-24 -29 15 16 0
-24 -30 15 16 0
26 -29 -15 0
26 -30 -15 0
-26 -29 15 0
-26 -30 15 0
27 28 29 30 0
-27 -28 0
-27 -29 0
-27 -30 0
-28 -29 0
-28 -30 0
-29 -30 0
-28 -20 0
-30 -21 0
-29 -22 0
-19 27 0
-33 -35 0
31 -35 -23 0
-31 -35 23 0
32 -35 -24 0
-32 -35 24 0
-34 -35 0
-33 -36 23 0
-33 -36 24 0
33 -36 -23 -24 0
31 -36 -24 0
-31 -36 24 0
32 -36 -23 0
-32 -36 23 0
-34 -36 0
-33 32 -37 0
-33 -37 23 0
-33 -37 -24 0
33 -32 -37 -23 24 0
-33 -38 23 0
-33 -38 24 0
-33 -32 -38 0
33 32 -38 -23 -24 0
31 -37 -23 0
31 -38 -23 0
-31 -37 23 0
-31 -38 23 0
32 -37 23 -24 0
32 -38 23 -24 0
-32 -37 23 24 0
-32 -38 23 24 0
34 -37 -23 0
34 -38 -23 0
-34 -37 23 0
-34 -38 23 0
35 36 37 38 0
-35 -36 0
-35 -37 0
-35 -38 0
-36 -37 0
-36 -38 0
-37 -38 0
-36 -28 0
-38 -29 0
-37 -30 0
-27 35 0
-41 -43 0
39 -43 -31 0
-39 -43 31 0
40 -43 -32 0
-40 -43 32 0
-42 -43 0
-41 -44 31 0
-41 -44 32 0
41 -44 -31 -32 0
39 -44 -32 0
-39 -44 32 0
40 -44 -31 0
-40 -44 31 0
-42 -44 0
-41 40 -45 0
-41 -45 31 0
-41 -45 -32 0
41 -40 -45 -31 32 0
-41 -46 31 0
-41 -46 32 0
-41 -40 -46 0
41 40 -46 -31 -32 0
39 -45 -31 0
39 -46 -31 0
-39 -45 31 0
-39 -46 31 0
40 -45 31 -32 0
40 -46 31 -32 0
-40 -45 31 32 0
-40 -46 31 32 0
42 -45 -31 0
42 -46 -31 0
-42 -45 31 0
-42 -46 31 0
43 44 45 46 0
-43 -44 0
-43 -45 0
-43 -46 0
-44 -45 0
-44 -46 0
-45 -46 0
-44 -36 0
-46 -37 0
-45 -38 0
-35 43 0
-49 -51 0
47 -51 -39 0
-47 -51 39 0
48 -51 -40 0
-48 -51 40 0
-50 -51 0
-49 -52 39 0
-49 -52 40 0
49 -52 -39 -40 0
47 -52 -40 0
-47 -52 40 0
48 -52 -39 0
-48 -52 39 0
-50 -52 0
-49 48 -53 0
-49 -53 39 0
-49 -53 -40 0
49 -48 -53 -39 40 0
-49 -54 39 0
-49 -54 40 0
-49 -48 -54 0
49 48 -54 -39 -40 0
47 -53 -39 0
47 -54 -39 0
-47 -53 39 0
-47 -54 39 0
48 -53 39 -40 0
48 -54 39 -40 0
-48 -53 39 40 0
-48 -54 39 40 0
50 -53 -39 0
50 -54 -39 0
-50 -53 39 0
-50 -54 39 0
51 52 53 54 0
-51 -52 0
-51 -53 0
-51 -54 0
-52 -53 0
-52 -54 0
-53 -54 0
-52 -44 0
-54 -45 0
-53 -46 0
-54 -46 -38 -30 -22 0
-53 -45 -37 -29 -21 0
-43 51 0
-57 -59 0
55 -59 -47 0
-55 -59 47 0
56 -59 -48 0
-56 -59 48 0
-58 -59 0
-57 -60 47 0
-57 -60 48 0
57 -60 -47 -48 0
55 -60 -48 0
-55 -60 48 0
56 -60 -47 0
-56 -60 47 0
-58 -60 0
-57 56 -61 0
-57 -61 47 0
-57 -61 -48 0
57 -56 -61 -47 48 0
-57 -62 47 0
-57 -62 48 0
-57 -56 -62 0
57 56 -62 -47 -48 0
55 -61 -47 0
55 -62 -47 0
-55 -61 47 0
-55 -62 47 0
56 -61 47 -48 0
56 -62 47 -48 0
-56 -61 47 48 0
-56 -62 47 48 0
58 -61 -47 0
58 -62 -47 0
-58 -61 47 0
-58 -62 47 0
59 60 61 62 0
-59 -60 0
-59 -61 0
-59 -62 0
-60 -61 0
-60 -62 0
-61 -62 0
-60 -52 0
-62 -53 0
-61 -54 0
-62 -54 -46 -38 -30 0
-61 -53 -45 -37 -29 0
-51 59 0
-65 -67 0
63 -67 -55 0
-63 -67 55 0
64 -67 -56 0
-64 -67 56 0
-66 -67 0
-65 -68 55 0
-65 -68 56 0
65 -68 -55 -56 0
63 -68 -56 0
-63 -68 56 0
64 -68 -55 0
-64 -68 55 0
-66 -68 0
-65 64 -69 0
-65 -69 55 0
-65 -69 -56 0
65 -64 -69 -55 56 0
-65 -70 55 0
-65 -70 56 0
-65 -64 -70 0
65 64 -70 -55 -56 0
63 -69 -55 0
63 -70 -55 0
-63 -69 55 0
-63 -70 55 0
64 -69 55 -56 0
64 -70 55 -56 0
-64 -69 55 56 0
-64 -70 55 56 0
66 -69 -55 0
66 -70 -55 0
-66 -69 55 0
-66 -70 55 0
67 68 69 70 0
-67 -68 0
-67 -69 0
-67 -70 0
-68 -69 0
-68 -70 0
-69 -70 0
-68 -60 0
-70 -61 0
-69 -62 0
-70 -62 -54 -46 -38 0
-69 -61 -53 -45 -37 0
-59 67 0
-73 -75 0
71 -75 -63 0
-71 -75 63 0
72 -75 -64 0
-72 -75 64 0
-74 -75 0
-73 -76 63 0
-73 -76 64 0
73 -76 -63 -64 0
71 -76 -64 0
-71 -76 64 0
72 -76 -63 0
-72 -76 63 0
-74 -76 0
-73 72 -77 0
-73 -77 63 0
-73 -77 -64 0
73 -72 -77 -63 64 0
-73 -78 63 0
-73 -78 64 0
-73 -72 -78 0
73 72 -78 -63 -64 0
71 -77 -63 0
71 -78 -63 0
-71 -77 63 0
-71 -78 63 0
72 -77 63 -64 0
72 -78 63 -64 0
-72 -77 63 64 0
-72 -78 63 64 0
74 -77 -63 0
74 -78 -63 0
-74 -77 63 0
-74 -78 63 0
75 76 77 78 0
-75 -76 0
-75 -77 0
-75 -78 0
-76 -77 0
-76 -78 0
-77 -78 0
-76 -68 0
-78 -69 0
-77 -70 0
-78 -70 -62 -54 -46 0
-77 -69 -61 -53 -45 0
-67 75 0
71 -1 0
-71 1 0
72 -2 0
-72 2 0
